cliques=[{44,5,0,23,31},{33,46,56,1,66},{6,13,49,2,26,57,17},{51,35,19,71,8,69,3,59,29,41},{6,5,8,9,4,7},{44,5,0,23,31},{6,5,8,9,4,7},{6,5,8,9,7,4},{51,35,19,71,8,69,3,59,29,41},{6,5,8,9,4,7},{14,13,11,12,10},{37,43,11,22,63,4,55},{14,13,11,12,10},{6,13,49,2,26,57,17},{14,13,11,12,10},{36,62,15,10,21,54},{19,15,18,20,17,16},{6,13,49,2,26,57,17},{19,15,18,20,17,16},{51,35,19,71,8,69,3,59,29,41},{72,52,60,20,30,70},{22,24,23,25,26,21,30,29,28,27},{37,43,11,22,63,4,55},{44,5,0,23,31},{22,24,23,25,26,21,30,29,28,27},{22,24,23,25,26,21,30,29,28,27},{6,13,49,2,26,57,17},{22,24,23,25,26,21,30,29,28,27},{14,50,7,68,48,40,28},{51,35,19,71,8,69,3,59,29,41},{72,52,60,20,30,70},{44,5,0,23,31},{35,33,32,34,31},{35,33,32,34,31},{35,33,32,34,31},{51,35,19,71,8,69,3,59,29,41},{37,36,39,38,40,41,42},{37,43,11,22,63,4,55},{37,36,39,38,40,41,42},{37,36,39,38,40,41,42},{14,50,7,68,48,40,28},{51,35,19,71,8,69,3,59,29,41},{73,61,9,53,42},{44,43,46,48,45,47},{44,5,0,23,31},{44,43,46,48,45,47},{44,43,46,48,45,47},{44,43,46,48,45,47},{44,43,46,48,45,47},{6,13,49,2,26,57,17},{14,50,7,68,48,40,28},{51,35,19,71,8,69,3,59,29,41},{51,50,52,49,53},{51,50,52,49,53},{61,60,56,58,59,55,54,57},{37,43,11,22,63,4,55},{61,60,56,58,59,55,54,57},{6,13,49,2,26,57,17},{61,60,56,58,59,55,54,57},{51,35,19,71,8,69,3,59,29,41},{72,52,60,20,30,70},{73,61,9,53,42},{62,65,63,69,67,68,70,66,64},{37,43,11,22,63,4,55},{62,65,63,69,67,68,70,66,64},{62,65,63,69,67,68,70,66,64},{62,65,63,69,67,68,70,66,64},{62,65,63,69,67,68,70,66,64},{14,50,7,68,48,40,28},{51,35,19,71,8,69,3,59,29,41},{72,52,60,20,30,70},{51,35,19,71,8,69,3,59,29,41},{73,72,71},{73,72,71}];
nr_cliques=74;
